C 
 1.0000000000000000
    19.7417931200000005    0.0000000000000000    0.0000000000000000
    -9.8708965599999967   17.0968943581768542    0.0000000000000000
     0.0000000000000000    0.0000000000000000    8.6850380000000005
 C  
 256
Cartesian
  0.0000000000000000  0.0000000000000000  2.1712595000000001
  0.0000000000000000  0.0000000000000000  6.5137785000000008
  1.2338620823386208  0.7123705911336629  2.1712595000000001
 -0.0000000123386204  1.4247412036384439  6.5137785000000008
 -1.2338620699999996  2.1371117947721068  2.1712595000000001
 -1.2338620699999996  2.1371117947721068  6.5137785000000008
  0.0000000123386212  2.8494823859057696  2.1712595000000001
 -1.2338620823386202  3.5618529984105507  6.5137785000000008
 -2.4677241399999992  4.2742235895442136  2.1712595000000001
 -2.4677241399999992  4.2742235895442136  6.5137785000000008
 -1.2338620576613781  4.9865941806778764  2.1712595000000001
 -2.4677241523386195  5.6989647931826575  6.5137785000000008
 -3.7015862099999985  6.4113353843163203  2.1712595000000001
 -3.7015862099999985  6.4113353843163203  6.5137785000000008
 -2.4677241276613779  7.1237059754499832  2.1712595000000001
 -3.7015862223386189  7.8360765879547642  6.5137785000000008
 -4.9354482799999975  8.5484471790884253  2.1712595000000001
 -4.9354482799999975  8.5484471790884253  6.5137785000000008
 -3.7015861976613782  9.2608177702220900  2.1712595000000001
 -4.9354482923386191  9.9731883827268710  6.5137785000000008
 -6.1693103499999982 10.6855589738605339  2.1712595000000001
 -6.1693103499999982 10.6855589738605339  6.5137785000000008
 -4.9354482676613776 11.3979295649941967  2.1712595000000001
 -6.1693103623386190 12.1103001774989778  6.5137785000000008
 -7.4031724199999971 12.8226707686326407  2.1712595000000001
 -7.4031724199999971 12.8226707686326407  6.5137785000000008
 -6.1693103376613765 13.5350413597663035  2.1712595000000001
 -7.4031724323386179 14.2474119722710846  6.5137785000000008
 -8.6370344899999978 14.9597825634047474  2.1712595000000001
 -8.6370344899999978 14.9597825634047474  6.5137785000000008
 -7.4031724076613781 15.6721531545384103  2.1712595000000001
 -8.6370345023386186 16.3845237670431914  6.5137785000000008
  2.4677241400000001  0.0000000000000000  2.1712595000000001
  2.4677241400000001  0.0000000000000000  6.5137785000000008
  3.7015862223386211  0.7123705911336629  2.1712595000000001
  2.4677241276613797  1.4247412036384439  6.5137785000000008
  1.2338620700000005  2.1371117947721068  2.1712595000000001
  1.2338620700000005  2.1371117947721068  6.5137785000000008
  2.4677241523386209  2.8494823859057696  2.1712595000000001
  1.2338620576613801  3.5618529984105507  6.5137785000000008
  0.0000000000000009  4.2742235895442136  2.1712595000000001
  0.0000000000000009  4.2742235895442136  6.5137785000000008
  1.2338620823386222  4.9865941806778764  2.1712595000000001
 -0.0000000123386194  5.6989647931826575  6.5137785000000008
 -1.2338620699999987  6.4113353843163203  2.1712595000000001
 -1.2338620699999987  6.4113353843163203  6.5137785000000008
  0.0000000123386225  7.1237059754499832  2.1712595000000001
 -1.2338620823386190  7.8360765879547642  6.5137785000000008
 -2.4677241399999978  8.5484471790884253  2.1712595000000001
 -2.4677241399999978  8.5484471790884253  6.5137785000000008
 -1.2338620576613777  9.2608177702220900  2.1712595000000001
 -2.4677241523386191  9.9731883827268710  6.5137785000000008
 -3.7015862099999977 10.6855589738605339  2.1712595000000001
 -3.7015862099999977 10.6855589738605339  6.5137785000000008
 -2.4677241276613771 11.3979295649941967  2.1712595000000001
 -3.7015862223386184 12.1103001774989778  6.5137785000000008
 -4.9354482799999975 12.8226707686326407  2.1712595000000001
 -4.9354482799999975 12.8226707686326407  6.5137785000000008
 -3.7015861976613769 13.5350413597663035  2.1712595000000001
 -4.9354482923386183 14.2474119722710846  6.5137785000000008
 -6.1693103499999973 14.9597825634047474  2.1712595000000001
 -6.1693103499999973 14.9597825634047474  6.5137785000000008
 -4.9354482676613785 15.6721531545384103  2.1712595000000001
 -6.1693103623386198 16.3845237670431914  6.5137785000000008
  4.9354482800000001  0.0000000000000000  2.1712595000000001
  4.9354482800000001  0.0000000000000000  6.5137785000000008
  6.1693103623386216  0.7123705911336629  2.1712595000000001
  4.9354482676613793  1.4247412036384439  6.5137785000000008
  3.7015862100000003  2.1371117947721068  2.1712595000000001
  3.7015862100000003  2.1371117947721068  6.5137785000000008
  4.9354482923386200  2.8494823859057696  2.1712595000000001
  3.7015861976613800  3.5618529984105507  6.5137785000000008
  2.4677241400000010  4.2742235895442136  2.1712595000000001
  2.4677241400000010  4.2742235895442136  6.5137785000000008
  3.7015862223386224  4.9865941806778764  2.1712595000000001
  2.4677241276613811  5.6989647931826575  6.5137785000000008
  1.2338620700000014  6.4113353843163203  2.1712595000000001
  1.2338620700000014  6.4113353843163203  6.5137785000000008
  2.4677241523386231  7.1237059754499832  2.1712595000000001
  1.2338620576613815  7.8360765879547642  6.5137785000000008
  0.0000000000000023  8.5484471790884253  2.1712595000000001
  0.0000000000000023  8.5484471790884253  6.5137785000000008
  1.2338620823386228  9.2608177702220900  2.1712595000000001
 -0.0000000123386193  9.9731883827268710  6.5137785000000008
 -1.2338620699999978 10.6855589738605339  2.1712595000000001
 -1.2338620699999978 10.6855589738605339  6.5137785000000008
  0.0000000123386233 11.3979295649941967  2.1712595000000001
 -1.2338620823386188 12.1103001774989778  6.5137785000000008
 -2.4677241399999974 12.8226707686326407  2.1712595000000001
 -2.4677241399999974 12.8226707686326407  6.5137785000000008
 -1.2338620576613764 13.5350413597663035  2.1712595000000001
 -2.4677241523386169 14.2474119722710846  6.5137785000000008
 -3.7015862099999968 14.9597825634047474  2.1712595000000001
 -3.7015862099999968 14.9597825634047474  6.5137785000000008
 -2.4677241276613775 15.6721531545384103  2.1712595000000001
 -3.7015862223386180 16.3845237670431914  6.5137785000000008
  7.4031724200000006  0.0000000000000000  2.1712595000000001
  7.4031724200000006  0.0000000000000000  6.5137785000000008
  8.6370345023386221  0.7123705911336629  2.1712595000000001
  7.4031724076613799  1.4247412036384439  6.5137785000000008
  6.1693103500000008  2.1371117947721068  2.1712595000000001
  6.1693103500000008  2.1371117947721068  6.5137785000000008
  7.4031724323386214  2.8494823859057696  2.1712595000000001
  6.1693103376613800  3.5618529984105507  6.5137785000000008
  4.9354482800000010  4.2742235895442136  2.1712595000000001
  4.9354482800000010  4.2742235895442136  6.5137785000000008
  6.1693103623386225  4.9865941806778764  2.1712595000000001
  4.9354482676613811  5.6989647931826575  6.5137785000000008
  3.7015862100000021  6.4113353843163203  2.1712595000000001
  3.7015862100000021  6.4113353843163203  6.5137785000000008
  4.9354482923386227  7.1237059754499832  2.1712595000000001
  3.7015861976613813  7.8360765879547642  6.5137785000000008
  2.4677241400000027  8.5484471790884253  2.1712595000000001
  2.4677241400000027  8.5484471790884253  6.5137785000000008
  3.7015862223386224  9.2608177702220900  2.1712595000000001
  2.4677241276613819  9.9731883827268710  6.5137785000000008
  1.2338620700000027 10.6855589738605339  2.1712595000000001
  1.2338620700000027 10.6855589738605339  6.5137785000000008
  2.4677241523386231 11.3979295649941967  2.1712595000000001
  1.2338620576613826 12.1103001774989778  6.5137785000000008
  0.0000000000000031 12.8226707686326407  2.1712595000000001
  0.0000000000000031 12.8226707686326407  6.5137785000000008
  1.2338620823386250 13.5350413597663035  2.1712595000000001
 -0.0000000123386171 14.2474119722710846  6.5137785000000008
 -1.2338620699999965 14.9597825634047474  2.1712595000000001
 -1.2338620699999965 14.9597825634047474  6.5137785000000008
  0.0000000123386238 15.6721531545384103  2.1712595000000001
 -1.2338620823386184 16.3845237670431914  6.5137785000000008
  9.8708965599999985  0.0000000000000000  2.1712595000000001
  9.8708965599999985  0.0000000000000000  6.5137785000000008
 11.1047586423386218  0.7123705911336629  2.1712595000000001
  9.8708965476613812  1.4247412036384439  6.5137785000000008
  8.6370344899999996  2.1371117947721068  2.1712595000000001
  8.6370344899999996  2.1371117947721068  6.5137785000000008
  9.8708965723386228  2.8494823859057696  2.1712595000000001
  8.6370344776613823  3.5618529984105507  6.5137785000000008
  7.4031724199999989  4.2742235895442136  2.1712595000000001
  7.4031724199999989  4.2742235895442136  6.5137785000000008
  8.6370345023386221  4.9865941806778764  2.1712595000000001
  7.4031724076613825  5.6989647931826575  6.5137785000000008
  6.1693103499999999  6.4113353843163203  2.1712595000000001
  6.1693103499999999  6.4113353843163203  6.5137785000000008
  7.4031724323386223  7.1237059754499832  2.1712595000000001
  6.1693103376613827  7.8360765879547642  6.5137785000000008
  4.9354482800000010  8.5484471790884253  2.1712595000000001
  4.9354482800000010  8.5484471790884253  6.5137785000000008
  6.1693103623386225  9.2608177702220900  2.1712595000000001
  4.9354482676613838  9.9731883827268710  6.5137785000000008
  3.7015862100000003 10.6855589738605339  2.1712595000000001
  3.7015862100000003 10.6855589738605339  6.5137785000000008
  4.9354482923386227 11.3979295649941967  2.1712595000000001
  3.7015861976613840 12.1103001774989778  6.5137785000000008
  2.4677241400000010 12.8226707686326407  2.1712595000000001
  2.4677241400000010 12.8226707686326407  6.5137785000000008
  3.7015862223386247 13.5350413597663035  2.1712595000000001
  2.4677241276613842 14.2474119722710846  6.5137785000000008
  1.2338620700000014 14.9597825634047474  2.1712595000000001
  1.2338620700000014 14.9597825634047474  6.5137785000000008
  2.4677241523386200 15.6721531545384103  2.1712595000000001
  1.2338620576613812 16.3845237670431914  6.5137785000000008
 12.3386206999999999  0.0000000000000000  2.1712595000000001
 12.3386206999999999  0.0000000000000000  6.5137785000000008
 13.5724827823386214  0.7123705911336629  2.1712595000000001
 12.3386206876613791  1.4247412036384439  6.5137785000000008
 11.1047586300000010  2.1371117947721068  2.1712595000000001
 11.1047586300000010  2.1371117947721068  6.5137785000000008
 12.3386207123386225  2.8494823859057696  2.1712595000000001
 11.1047586176613802  3.5618529984105507  6.5137785000000008
  9.8708965600000003  4.2742235895442136  2.1712595000000001
  9.8708965600000003  4.2742235895442136  6.5137785000000008
 11.1047586423386218  4.9865941806778764  2.1712595000000001
  9.8708965476613795  5.6989647931826575  6.5137785000000008
  8.6370344900000013  6.4113353843163203  2.1712595000000001
  8.6370344900000013  6.4113353843163203  6.5137785000000008
  9.8708965723386211  7.1237059754499832  2.1712595000000001
  8.6370344776613805  7.8360765879547642  6.5137785000000008
  7.4031724200000024  8.5484471790884253  2.1712595000000001
  7.4031724200000024  8.5484471790884253  6.5137785000000008
  8.6370345023386221  9.2608177702220900  2.1712595000000001
  7.4031724076613816  9.9731883827268710  6.5137785000000008
  6.1693103500000017 10.6855589738605339  2.1712595000000001
  6.1693103500000017 10.6855589738605339  6.5137785000000008
  7.4031724323386223 11.3979295649941967  2.1712595000000001
  6.1693103376613818 12.1103001774989778  6.5137785000000008
  4.9354482800000028 12.8226707686326407  2.1712595000000001
  4.9354482800000028 12.8226707686326407  6.5137785000000008
  6.1693103623386225 13.5350413597663035  2.1712595000000001
  4.9354482676613820 14.2474119722710846  6.5137785000000008
  3.7015862100000030 14.9597825634047474  2.1712595000000001
  3.7015862100000030 14.9597825634047474  6.5137785000000008
  4.9354482923386227 15.6721531545384103  2.1712595000000001
  3.7015861976613826 16.3845237670431914  6.5137785000000008
 14.8063448400000013  0.0000000000000000  2.1712595000000001
 14.8063448400000013  0.0000000000000000  6.5137785000000008
 16.0402069223386228  0.7123705911336629  2.1712595000000001
 14.8063448276613805  1.4247412036384439  6.5137785000000008
 13.5724827700000024  2.1371117947721068  2.1712595000000001
 13.5724827700000024  2.1371117947721068  6.5137785000000008
 14.8063448523386221  2.8494823859057696  2.1712595000000001
 13.5724827576613816  3.5618529984105507  6.5137785000000008
 12.3386207000000017  4.2742235895442136  2.1712595000000001
 12.3386207000000017  4.2742235895442136  6.5137785000000008
 13.5724827823386232  4.9865941806778764  2.1712595000000001
 12.3386206876613809  5.6989647931826575  6.5137785000000008
 11.1047586300000027  6.4113353843163203  2.1712595000000001
 11.1047586300000027  6.4113353843163203  6.5137785000000008
 12.3386207123386225  7.1237059754499832  2.1712595000000001
 11.1047586176613819  7.8360765879547642  6.5137785000000008
  9.8708965600000038  8.5484471790884253  2.1712595000000001
  9.8708965600000038  8.5484471790884253  6.5137785000000008
 11.1047586423386235  9.2608177702220900  2.1712595000000001
  9.8708965476613812  9.9731883827268710  6.5137785000000008
  8.6370344900000031 10.6855589738605339  2.1712595000000001
  8.6370344900000031 10.6855589738605339  6.5137785000000008
  9.8708965723386228 11.3979295649941967  2.1712595000000001
  8.6370344776613805 12.1103001774989778  6.5137785000000008
  7.4031724200000042 12.8226707686326407  2.1712595000000001
  7.4031724200000042 12.8226707686326407  6.5137785000000008
  8.6370345023386275 13.5350413597663035  2.1712595000000001
  7.4031724076613834 14.2474119722710846  6.5137785000000008
  6.1693103500000044 14.9597825634047474  2.1712595000000001
  6.1693103500000044 14.9597825634047474  6.5137785000000008
  7.4031724323386241 15.6721531545384103  2.1712595000000001
  6.1693103376613818 16.3845237670431914  6.5137785000000008
 17.2740689799999991  0.0000000000000000  2.1712595000000001
 17.2740689799999991  0.0000000000000000  6.5137785000000008
 18.5079310623386206  0.7123705911336629  2.1712595000000001
 17.2740689676613783  1.4247412036384439  6.5137785000000008
 16.0402069099999984  2.1371117947721068  2.1712595000000001
 16.0402069099999984  2.1371117947721068  6.5137785000000008
 17.2740689923386199  2.8494823859057696  2.1712595000000001
 16.0402068976613776  3.5618529984105507  6.5137785000000008
 14.8063448399999995  4.2742235895442136  2.1712595000000001
 14.8063448399999995  4.2742235895442136  6.5137785000000008
 16.0402069223386192  4.9865941806778764  2.1712595000000001
 14.8063448276613769  5.6989647931826575  6.5137785000000008
 13.5724827700000006  6.4113353843163203  2.1712595000000001
 13.5724827700000006  6.4113353843163203  6.5137785000000008
 14.8063448523386203  7.1237059754499832  2.1712595000000001
 13.5724827576613816  7.8360765879547642  6.5137785000000008
 12.3386207000000017  8.5484471790884253  2.1712595000000001
 12.3386207000000017  8.5484471790884253  6.5137785000000008
 13.5724827823386214  9.2608177702220900  2.1712595000000001
 12.3386206876613791  9.9731883827268710  6.5137785000000008
 11.1047586300000010 10.6855589738605339  2.1712595000000001
 11.1047586300000010 10.6855589738605339  6.5137785000000008
 12.3386207123386207 11.3979295649941967  2.1712595000000001
 11.1047586176613784 12.1103001774989778  6.5137785000000008
  9.8708965600000020 12.8226707686326407  2.1712595000000001
  9.8708965600000020 12.8226707686326407  6.5137785000000008
 11.1047586423386218 13.5350413597663035  2.1712595000000001
  9.8708965476613830 14.2474119722710846  6.5137785000000008
  8.6370344900000013 14.9597825634047474  2.1712595000000001
  8.6370344900000013 14.9597825634047474  6.5137785000000008
  9.8708965723386228 15.6721531545384103  2.1712595000000001
  8.6370344776613805 16.3845237670431914  6.5137785000000008
