256

C       0.000000000000000      0.000000000000000      2.171259500000000
C       0.000000000000000      0.000000000000000      6.513778500000001
C       1.233862082338621      0.712370591133663      2.171259500000000
C      -0.000000012338620      1.424741203638444      6.513778500000001
C      -1.233862070000000      2.137111794772107      2.171259500000000
C      -1.233862070000000      2.137111794772107      6.513778500000001
C       0.000000012338621      2.849482385905770      2.171259500000000
C      -1.233862082338620      3.561852998410551      6.513778500000001
C      -2.467724139999999      4.274223589544214      2.171259500000000
C      -2.467724139999999      4.274223589544214      6.513778500000001
C      -1.233862057661378      4.986594180677876      2.171259500000000
C      -2.467724152338620      5.698964793182657      6.513778500000001
C      -3.701586209999999      6.411335384316320      2.171259500000000
C      -3.701586209999999      6.411335384316320      6.513778500000001
C      -2.467724127661378      7.123705975449983      2.171259500000000
C      -3.701586222338619      7.836076587954764      6.513778500000001
C      -4.935448279999997      8.548447179088425      2.171259500000000
C      -4.935448279999997      8.548447179088425      6.513778500000001
C      -3.701586197661378      9.260817770222090      2.171259500000000
C      -4.935448292338619      9.973188382726871      6.513778500000001
C      -6.169310349999998     10.685558973860534      2.171259500000000
C      -6.169310349999998     10.685558973860534      6.513778500000001
C      -4.935448267661378     11.397929564994197      2.171259500000000
C      -6.169310362338619     12.110300177498978      6.513778500000001
C      -7.403172419999997     12.822670768632641      2.171259500000000
C      -7.403172419999997     12.822670768632641      6.513778500000001
C      -6.169310337661376     13.535041359766304      2.171259500000000
C      -7.403172432338618     14.247411972271085      6.513778500000001
C      -8.637034489999998     14.959782563404747      2.171259500000000
C      -8.637034489999998     14.959782563404747      6.513778500000001
C      -7.403172407661378     15.672153154538410      2.171259500000000
C      -8.637034502338619     16.384523767043191      6.513778500000001
C       2.467724140000000      0.000000000000000      2.171259500000000
C       2.467724140000000      0.000000000000000      6.513778500000001
C       3.701586222338621      0.712370591133663      2.171259500000000
C       2.467724127661380      1.424741203638444      6.513778500000001
C       1.233862070000000      2.137111794772107      2.171259500000000
C       1.233862070000000      2.137111794772107      6.513778500000001
C       2.467724152338621      2.849482385905770      2.171259500000000
C       1.233862057661380      3.561852998410551      6.513778500000001
C       0.000000000000001      4.274223589544214      2.171259500000000
C       0.000000000000001      4.274223589544214      6.513778500000001
C       1.233862082338622      4.986594180677876      2.171259500000000
C      -0.000000012338619      5.698964793182657      6.513778500000001
C      -1.233862069999999      6.411335384316320      2.171259500000000
C      -1.233862069999999      6.411335384316320      6.513778500000001
C       0.000000012338623      7.123705975449983      2.171259500000000
C      -1.233862082338619      7.836076587954764      6.513778500000001
C      -2.467724139999998      8.548447179088425      2.171259500000000
C      -2.467724139999998      8.548447179088425      6.513778500000001
C      -1.233862057661378      9.260817770222090      2.171259500000000
C      -2.467724152338619      9.973188382726871      6.513778500000001
C      -3.701586209999998     10.685558973860534      2.171259500000000
C      -3.701586209999998     10.685558973860534      6.513778500000001
C      -2.467724127661377     11.397929564994197      2.171259500000000
C      -3.701586222338618     12.110300177498978      6.513778500000001
C      -4.935448279999997     12.822670768632641      2.171259500000000
C      -4.935448279999997     12.822670768632641      6.513778500000001
C      -3.701586197661377     13.535041359766304      2.171259500000000
C      -4.935448292338618     14.247411972271085      6.513778500000001
C      -6.169310349999997     14.959782563404747      2.171259500000000
C      -6.169310349999997     14.959782563404747      6.513778500000001
C      -4.935448267661378     15.672153154538410      2.171259500000000
C      -6.169310362338620     16.384523767043191      6.513778500000001
C       4.935448280000000      0.000000000000000      2.171259500000000
C       4.935448280000000      0.000000000000000      6.513778500000001
C       6.169310362338622      0.712370591133663      2.171259500000000
C       4.935448267661379      1.424741203638444      6.513778500000001
C       3.701586210000000      2.137111794772107      2.171259500000000
C       3.701586210000000      2.137111794772107      6.513778500000001
C       4.935448292338620      2.849482385905770      2.171259500000000
C       3.701586197661380      3.561852998410551      6.513778500000001
C       2.467724140000001      4.274223589544214      2.171259500000000
C       2.467724140000001      4.274223589544214      6.513778500000001
C       3.701586222338622      4.986594180677876      2.171259500000000
C       2.467724127661381      5.698964793182657      6.513778500000001
C       1.233862070000001      6.411335384316320      2.171259500000000
C       1.233862070000001      6.411335384316320      6.513778500000001
C       2.467724152338623      7.123705975449983      2.171259500000000
C       1.233862057661381      7.836076587954764      6.513778500000001
C       0.000000000000002      8.548447179088425      2.171259500000000
C       0.000000000000002      8.548447179088425      6.513778500000001
C       1.233862082338623      9.260817770222090      2.171259500000000
C      -0.000000012338619      9.973188382726871      6.513778500000001
C      -1.233862069999998     10.685558973860534      2.171259500000000
C      -1.233862069999998     10.685558973860534      6.513778500000001
C       0.000000012338623     11.397929564994197      2.171259500000000
C      -1.233862082338619     12.110300177498978      6.513778500000001
C      -2.467724139999997     12.822670768632641      2.171259500000000
C      -2.467724139999997     12.822670768632641      6.513778500000001
C      -1.233862057661376     13.535041359766304      2.171259500000000
C      -2.467724152338617     14.247411972271085      6.513778500000001
C      -3.701586209999997     14.959782563404747      2.171259500000000
C      -3.701586209999997     14.959782563404747      6.513778500000001
C      -2.467724127661377     15.672153154538410      2.171259500000000
C      -3.701586222338618     16.384523767043191      6.513778500000001
C       7.403172420000001      0.000000000000000      2.171259500000000
C       7.403172420000001      0.000000000000000      6.513778500000001
C       8.637034502338622      0.712370591133663      2.171259500000000
C       7.403172407661380      1.424741203638444      6.513778500000001
C       6.169310350000001      2.137111794772107      2.171259500000000
C       6.169310350000001      2.137111794772107      6.513778500000001
C       7.403172432338621      2.849482385905770      2.171259500000000
C       6.169310337661380      3.561852998410551      6.513778500000001
C       4.935448280000001      4.274223589544214      2.171259500000000
C       4.935448280000001      4.274223589544214      6.513778500000001
C       6.169310362338623      4.986594180677876      2.171259500000000
C       4.935448267661381      5.698964793182657      6.513778500000001
C       3.701586210000002      6.411335384316320      2.171259500000000
C       3.701586210000002      6.411335384316320      6.513778500000001
C       4.935448292338623      7.123705975449983      2.171259500000000
C       3.701586197661381      7.836076587954764      6.513778500000001
C       2.467724140000003      8.548447179088425      2.171259500000000
C       2.467724140000003      8.548447179088425      6.513778500000001
C       3.701586222338622      9.260817770222090      2.171259500000000
C       2.467724127661382      9.973188382726871      6.513778500000001
C       1.233862070000003     10.685558973860534      2.171259500000000
C       1.233862070000003     10.685558973860534      6.513778500000001
C       2.467724152338623     11.397929564994197      2.171259500000000
C       1.233862057661383     12.110300177498978      6.513778500000001
C       0.000000000000003     12.822670768632641      2.171259500000000
C       0.000000000000003     12.822670768632641      6.513778500000001
C       1.233862082338625     13.535041359766304      2.171259500000000
C      -0.000000012338617     14.247411972271085      6.513778500000001
C      -1.233862069999996     14.959782563404747      2.171259500000000
C      -1.233862069999996     14.959782563404747      6.513778500000001
C       0.000000012338624     15.672153154538410      2.171259500000000
C      -1.233862082338618     16.384523767043191      6.513778500000001
C       9.870896559999998      0.000000000000000      2.171259500000000
C       9.870896559999998      0.000000000000000      6.513778500000001
C      11.104758642338622      0.712370591133663      2.171259500000000
C       9.870896547661381      1.424741203638444      6.513778500000001
C       8.637034490000000      2.137111794772107      2.171259500000000
C       8.637034490000000      2.137111794772107      6.513778500000001
C       9.870896572338623      2.849482385905770      2.171259500000000
C       8.637034477661382      3.561852998410551      6.513778500000001
C       7.403172419999999      4.274223589544214      2.171259500000000
C       7.403172419999999      4.274223589544214      6.513778500000001
C       8.637034502338622      4.986594180677876      2.171259500000000
C       7.403172407661383      5.698964793182657      6.513778500000001
C       6.169310350000000      6.411335384316320      2.171259500000000
C       6.169310350000000      6.411335384316320      6.513778500000001
C       7.403172432338622      7.123705975449983      2.171259500000000
C       6.169310337661383      7.836076587954764      6.513778500000001
C       4.935448280000001      8.548447179088425      2.171259500000000
C       4.935448280000001      8.548447179088425      6.513778500000001
C       6.169310362338623      9.260817770222090      2.171259500000000
C       4.935448267661384      9.973188382726871      6.513778500000001
C       3.701586210000000     10.685558973860534      2.171259500000000
C       3.701586210000000     10.685558973860534      6.513778500000001
C       4.935448292338623     11.397929564994197      2.171259500000000
C       3.701586197661384     12.110300177498978      6.513778500000001
C       2.467724140000001     12.822670768632641      2.171259500000000
C       2.467724140000001     12.822670768632641      6.513778500000001
C       3.701586222338625     13.535041359766304      2.171259500000000
C       2.467724127661384     14.247411972271085      6.513778500000001
C       1.233862070000001     14.959782563404747      2.171259500000000
C       1.233862070000001     14.959782563404747      6.513778500000001
C       2.467724152338620     15.672153154538410      2.171259500000000
C       1.233862057661381     16.384523767043191      6.513778500000001
C      12.338620700000000      0.000000000000000      2.171259500000000
C      12.338620700000000      0.000000000000000      6.513778500000001
C      13.572482782338621      0.712370591133663      2.171259500000000
C      12.338620687661379      1.424741203638444      6.513778500000001
C      11.104758630000001      2.137111794772107      2.171259500000000
C      11.104758630000001      2.137111794772107      6.513778500000001
C      12.338620712338622      2.849482385905770      2.171259500000000
C      11.104758617661380      3.561852998410551      6.513778500000001
C       9.870896560000000      4.274223589544214      2.171259500000000
C       9.870896560000000      4.274223589544214      6.513778500000001
C      11.104758642338622      4.986594180677876      2.171259500000000
C       9.870896547661379      5.698964793182657      6.513778500000001
C       8.637034490000001      6.411335384316320      2.171259500000000
C       8.637034490000001      6.411335384316320      6.513778500000001
C       9.870896572338621      7.123705975449983      2.171259500000000
C       8.637034477661381      7.836076587954764      6.513778500000001
C       7.403172420000002      8.548447179088425      2.171259500000000
C       7.403172420000002      8.548447179088425      6.513778500000001
C       8.637034502338622      9.260817770222090      2.171259500000000
C       7.403172407661382      9.973188382726871      6.513778500000001
C       6.169310350000002     10.685558973860534      2.171259500000000
C       6.169310350000002     10.685558973860534      6.513778500000001
C       7.403172432338622     11.397929564994197      2.171259500000000
C       6.169310337661382     12.110300177498978      6.513778500000001
C       4.935448280000003     12.822670768632641      2.171259500000000
C       4.935448280000003     12.822670768632641      6.513778500000001
C       6.169310362338623     13.535041359766304      2.171259500000000
C       4.935448267661382     14.247411972271085      6.513778500000001
C       3.701586210000003     14.959782563404747      2.171259500000000
C       3.701586210000003     14.959782563404747      6.513778500000001
C       4.935448292338623     15.672153154538410      2.171259500000000
C       3.701586197661383     16.384523767043191      6.513778500000001
C      14.806344840000001      0.000000000000000      2.171259500000000
C      14.806344840000001      0.000000000000000      6.513778500000001
C      16.040206922338623      0.712370591133663      2.171259500000000
C      14.806344827661380      1.424741203638444      6.513778500000001
C      13.572482770000002      2.137111794772107      2.171259500000000
C      13.572482770000002      2.137111794772107      6.513778500000001
C      14.806344852338622      2.849482385905770      2.171259500000000
C      13.572482757661382      3.561852998410551      6.513778500000001
C      12.338620700000002      4.274223589544214      2.171259500000000
C      12.338620700000002      4.274223589544214      6.513778500000001
C      13.572482782338623      4.986594180677876      2.171259500000000
C      12.338620687661381      5.698964793182657      6.513778500000001
C      11.104758630000003      6.411335384316320      2.171259500000000
C      11.104758630000003      6.411335384316320      6.513778500000001
C      12.338620712338622      7.123705975449983      2.171259500000000
C      11.104758617661382      7.836076587954764      6.513778500000001
C       9.870896560000004      8.548447179088425      2.171259500000000
C       9.870896560000004      8.548447179088425      6.513778500000001
C      11.104758642338624      9.260817770222090      2.171259500000000
C       9.870896547661381      9.973188382726871      6.513778500000001
C       8.637034490000003     10.685558973860534      2.171259500000000
C       8.637034490000003     10.685558973860534      6.513778500000001
C       9.870896572338623     11.397929564994197      2.171259500000000
C       8.637034477661381     12.110300177498978      6.513778500000001
C       7.403172420000004     12.822670768632641      2.171259500000000
C       7.403172420000004     12.822670768632641      6.513778500000001
C       8.637034502338627     13.535041359766304      2.171259500000000
C       7.403172407661383     14.247411972271085      6.513778500000001
C       6.169310350000004     14.959782563404747      2.171259500000000
C       6.169310350000004     14.959782563404747      6.513778500000001
C       7.403172432338624     15.672153154538410      2.171259500000000
C       6.169310337661382     16.384523767043191      6.513778500000001
C      17.274068979999999      0.000000000000000      2.171259500000000
C      17.274068979999999      0.000000000000000      6.513778500000001
C      18.507931062338621      0.712370591133663      2.171259500000000
C      17.274068967661378      1.424741203638444      6.513778500000001
C      16.040206909999998      2.137111794772107      2.171259500000000
C      16.040206909999998      2.137111794772107      6.513778500000001
C      17.274068992338620      2.849482385905770      2.171259500000000
C      16.040206897661378      3.561852998410551      6.513778500000001
C      14.806344840000000      4.274223589544214      2.171259500000000
C      14.806344840000000      4.274223589544214      6.513778500000001
C      16.040206922338619      4.986594180677876      2.171259500000000
C      14.806344827661377      5.698964793182657      6.513778500000001
C      13.572482770000001      6.411335384316320      2.171259500000000
C      13.572482770000001      6.411335384316320      6.513778500000001
C      14.806344852338620      7.123705975449983      2.171259500000000
C      13.572482757661382      7.836076587954764      6.513778500000001
C      12.338620700000002      8.548447179088425      2.171259500000000
C      12.338620700000002      8.548447179088425      6.513778500000001
C      13.572482782338621      9.260817770222090      2.171259500000000
C      12.338620687661379      9.973188382726871      6.513778500000001
C      11.104758630000001     10.685558973860534      2.171259500000000
C      11.104758630000001     10.685558973860534      6.513778500000001
C      12.338620712338621     11.397929564994197      2.171259500000000
C      11.104758617661378     12.110300177498978      6.513778500000001
C       9.870896560000002     12.822670768632641      2.171259500000000
C       9.870896560000002     12.822670768632641      6.513778500000001
C      11.104758642338622     13.535041359766304      2.171259500000000
C       9.870896547661383     14.247411972271085      6.513778500000001
C       8.637034490000001     14.959782563404747      2.171259500000000
C       8.637034490000001     14.959782563404747      6.513778500000001
C       9.870896572338623     15.672153154538410      2.171259500000000
C       8.637034477661381     16.384523767043191      6.513778500000001
