(written by ASE)

400 atoms
2 atom types

0.0                      50  xlo xhi
0.0                      50  ylo yhi
0.0                      50  zlo zhi

Masses

1      51.996099986624294 # Cr
2      35.449999990880691 # Cl

Atoms # atomic

     1   1      34.868401452968193      4.7088673943824766      48.781117581837798
     2   2      35.311993549097508      4.6142866200484747        46.4702074733788
     3   2      35.889174521304753      3.1676338096141539     0.24010571754725943
     4   2      33.404036288502311      6.3446817534848012      49.633039554587342
     5   1      22.519296894778357      18.539901211629061       46.33824944243009
     6   2      23.602262569785928      17.726993702103169      44.411492652455856
     7   2      23.329181523614178      20.469391344870182      47.418610360688724
     8   2      20.626446590934965      17.423318587913837      47.184645314145691
     9   1      11.361936089238844       27.72923935079174      3.1908628052087664
    10   2      13.143274286840919      28.342011329045171      1.7775794902180408
    11   2      9.2523927021530756       28.74408203622253      2.9340632299943099
    12   2      11.690141278722537       26.10162468710752      4.8609456954139487
    13   1      17.726298406493417      48.534901219745166      44.656056066109883
    14   2      17.235248921037122      47.404809907867289      42.649120833061431
    15   2       18.31470835818747       47.31341361606011      46.581612287774455
    16   2      17.628937940255653     0.88648013530810166      44.737435077493764
    17   1      2.1901882893614388      7.7144746033773917      34.152447662122732
    18   2      1.4877087930868313      6.4165830663292578      32.317229659984399
    19   2     0.62386921839291998      8.9962022822366858      35.356542228660714
    20   2      4.4589868566045654      7.7306384615662322      34.783571097723083
    21   1      18.522985301743443      23.477790563790396      9.4735679542142854
    22   2        20.5142228070711      24.418218018014187      8.6389456439932761
    23   2      16.648312664552083      24.847744424975286       9.867082784418443
    24   2      18.406420433607146      21.167409248381716      9.9146754342311372
    25   1      33.490699734125521      21.857595943616538      41.633909802891871
    26   2      33.806392845271631      23.441550857763552        43.3478087758551
    27   2      33.185171056378721      19.585382731047865      42.172170282309267
    28   2       33.48053530072621      22.545854242038192      39.381750350511247
    29   1      40.238217874840096      19.373918951508724      14.416405196512205
    30   2      40.611559867496794      20.418906183370289      12.339233455474542
    31   2      41.215106421555561      17.280477945388665       14.87380930798386
    32   2      38.887987335467933      20.422372725767218      16.036172826078211
    33   1     0.36811348755027556      39.346218875106921      33.242542829601604
    34   2      48.597634524604487      38.903367428584446      31.754150462623272
    35   2      1.2537365174445356      41.522317044607448      33.404695861079219
    36   2      1.2529694206018034      37.612972152128876       34.56878216510232
    37   1      28.437059797644686      6.9898499063828723      5.7265036767986723
    38   2        29.3942800807664       8.050755205913056      3.8545436678750948
    39   2      26.145525206455648      7.2673002123523585      6.1933179279752357
    40   2      29.771374105712013      5.6514943008832024      7.1316494345456869
    41   1      38.249942870801277       31.73591600002954      27.678970032899791
    42   2      39.356710003766025      32.087459340638041      25.630187762119704
    43   2      36.089557284495996      30.798845414435448      27.704618348609205
    44   2       39.30356132414181      32.321443245015132      29.702103987970464
    45   1      21.835869461618117       10.72923364097646      20.426432186231807
    46   2      19.618368905545204      10.636437006206144      19.638964683161607
    47   2       23.52874130643762      11.649345065644649       19.07232551273356
    48   2       22.36049817287153      9.9019188510785874      22.568006362800254
    49   1      14.069194601099827      14.679687888334181       33.09582573634475
    50   2      15.041907462951526      16.121610439306011      31.508150062478339
    51   2      15.334219577378205      13.927453071923839      34.934270620036393
    52   2      11.831456762969751      13.990000153772694      32.845056526519514
    53   1      20.319343072003527      40.701019233301736      8.3486459953851959
    54   2      21.047532392129447      42.834912809833689      7.6687463571368699
    55   2       18.65743256998212      39.576016772147831      7.1163927967005218
    56   2      21.253064253899012       39.69212811792368      10.260798832318198
    57   1      23.093861512569369      8.0635889516800887      25.052238755168176
    58   2      22.420576393455764      5.8150460345596713      25.243985719284385
    59   2       21.85033607474255      9.7595699030592442      26.112105774202483
    60   2      25.010672069509791      8.6161509174213506      23.800624772017663
    61   1      19.051061304824124      15.075604457393826      31.514129655944423
    62   2      17.520661046339793      14.812745183662887      33.284667724172479
    63   2       21.23590128155594      14.218608065124933      31.709210305196496
    64   2      18.396621586576636      16.195460123393659      29.548510938464297
    65   1      48.094883227475727      45.429034535380353      34.985356690537479
    66   2      47.973713002734385      43.308180892762238      36.001881458179469
    67   2      46.273541344299723       46.23974610936385      33.731767647669727
    68   2    0.037395335393078523      46.739176604014972      35.222420965763241
    69   1      35.844509457949783      22.468075107189435      13.612078092257951
    70   2      37.965452381606319       23.09375577933125       14.42210883926662
    71   2      34.232018081235211      24.117342602041717      13.136879933123458
    72   2      35.336057911007821      20.193126940195334      13.277245504383778
    73   1      10.118168239761516      15.297831207532624      28.960978447094799
    74   2      7.9601838268069214      14.790806067572232      29.755996548079398
    75   2      11.943344532811533      13.934527949861705      29.557770476961199
    76   2      10.450976359666093      17.168159605163936      27.569168316243804
    77   1      35.973147797546837      21.604651988755187      31.365442035122161
    78   2      37.531924762287431      20.640963600787444      32.844476877541446
    79   2      35.740967984304795      23.945836676613123      31.260695714602392
    80   2      34.646550646048283      20.227155688864997      29.991153513222645
    81   1      20.790370108530482      2.0807086930946239      24.699540962225946
    82   2      19.216238377026805     0.74463315893494597      23.566828969311082
    83   2      22.731403139413469      2.8137735970500759       23.58552497508304
    84   2      20.423468809151171      2.6837193232988503      26.946268942283719
    85   1      29.382228608885601      8.5296484268443056      46.256005918839861
    86   2      29.368274766608049       6.675572175110597      47.707980967882641
    87   2      27.543518601688287      8.9303298663567325      44.840158153907943
    88   2       31.23489245836047      9.9830432390655872         46.219878634729
    89   1      1.1401935514848751      47.927960662072266       24.11517184714501
    90   2      3.0599814609847034        48.7438034368408      23.022084499584782
    91   2      49.638606277638964      46.523624628276018      22.966650640024557
    92   2     0.72199291583095859      48.516453921099981      26.356780401825684
    93   1      24.535349717726046       46.89132274874914      28.586402618803771
    94   2      23.894977210422521      45.014434140525374      27.316269868178995
    95   2       22.89515096933988      48.343327707835797      29.450957223545544
    96   2      26.815920973415736      47.316206397886241      28.991980764686776
    97   1      26.033620123576888      21.945573015252336      1.0806039940165215
    98   2      27.331049237931897      20.010797572943972      1.4260698838876402
    99   2      24.733813607314957      22.158611727301107      49.128389219087389
   100   2      26.035997525483808      23.667309745511929      2.6873528790745391
   101   1      27.701807176952471      5.4287870567721779      33.612004651990581
   102   2      29.670153653405144      5.2134288878483703      32.337148578657548
   103   2      27.293955836910882      7.4067687697900286      34.823314120042923
   104   2      26.141312040541383      3.6661635126781356      33.675551257271273
   105   1      38.432374595882848      5.3870472977948278      45.800592256880392
   106   2      39.227307196214447      5.7353768232771154      47.989832696532311
   107   2      38.197569789643907      7.2106282101903822      44.329047368365714
   108   2      37.872246801790197      3.2151368599169858      45.082896705743153
   109   1      18.546114193121937      41.489487156620655      40.412573603215094
   110   2      17.540812547005864      43.425659851422161      41.299494623498973
   111   2      20.874455673280139      41.425369522210175      40.065097156916465
   112   2       17.22307435907981      39.617432096229628      39.873129029229844
   113   1      25.752856461585726      12.798254528380138      46.802178502448164
   114   2      24.115848424126511      11.370851479373471      47.712535696619994
   115   2       27.77601827710513      11.904744607219907        45.9931783238249
   116   2      25.366702683525531      15.119167498547037      46.700821486899599
   117   1      49.618778202791852      44.583863312745699      37.430400972847458
   118   2       49.24433554258961      46.752477748381992       38.26880965825724
   119   2      1.7914758133282831       43.67543012027695      37.443019530225655
   120   2      47.820523252457669      43.323682069578155       36.57937373005948
   121   1       15.79645259153965      38.600621605549399      33.083063158388057
   122   2       13.84842196633527      39.551110108342861      32.162317107990184
   123   2      15.634128784250196      36.739685585021782      34.517145830025193
   124   2      17.906807024033483      39.511069123283555      32.569726537148796
   125   1      13.123025796143233      46.840657526688965      12.048528750284238
   126   2      11.794646013520268      48.518925746031655      13.030795484457236
   127   2      14.976075229357924      47.432083292200396      10.720956393705533
   128   2      12.598356145551509      44.570963541834843      12.393834372689943
   129   1      8.9634154078869539      29.969139576042174      43.728102041873221
   130   2      9.0350140090035609      31.976084977203982      44.958170656655987
   131   2      7.3208724802247449       28.35141784017441      44.208782929872569
   132   2      10.534359734432556      29.579915910748127      42.017352539091107
   133   1      48.591321303048367      25.037059310117115      7.1948751275625389
   134   2       47.89379278045034      24.126355121852516      9.2515950505563165
   135   2      48.358518737867065       27.34523155105963      6.7896975470038328
   136   2      49.521652390827697        23.6395912574392      5.5433327851274665
   137   1      33.882933680642871      6.0916252314265567       25.31649658103165
   138   2      35.551222469816608      7.7447501047337095      25.489746888882582
   139   2      33.737522139588627      4.3908964126305579      26.938964444702606
   140   2      32.360056432523379      6.1392291769154035      23.520778409509767
   141   1      40.206226309113134      35.770356480790085      36.949200195777088
   142   2      40.296609055902813      34.890889787293396      34.766450944462875
   143   2      40.863499830436034      37.995955369332805      37.350106800219095
   144   2      39.458570041000556       34.42422428574406      38.731042842649295
   145   1      19.878909691247031      15.047434589046988      24.429202267576667
   146   2      20.745228738575733      13.176276235579396      25.566867738830819
   147   2      17.643529783790292      15.703693879721373      24.773332203418132
   148   2      21.247970551375069      16.262333651840198      22.947406860481049
   149   1      46.240421465601358      1.2429745693128154      27.759902116341234
   150   2      48.303180890977188     0.46503081892125492       26.93174025157694
   151   2      45.755911539459682       3.547478471881707      27.736731132008625
   152   2      44.662171966367197      49.716414417135489      28.611234965438136
   153   1      20.955715965815191      48.311595607159084      29.802127661718643
   154   2      18.889739691910993      47.980932537257921      28.721188731959675
   155   2      22.129263774840464     0.33184983889326403      29.506520863603079
   156   2      21.848144430694116       46.62200444532607      31.178673389593175
   157   1       39.23817246260937       0.891839198849387      5.4571998382867468
   158   2      37.252813059192015      1.9026698492079903      4.6939210978793655
   159   2      39.184508155105696      49.446536884888204      7.3157601314595562
   160   2      41.277196173530399      1.3263108624519679      4.3619182855213197
   161   1      26.538479529952674      30.300791035000547      43.386947688800561
   162   2      27.881371777502075      31.287587701567809      41.722947162862098
   163   2      25.485955967222303      31.650562279775791      45.004457112784003
   164   2      26.248110845133652      27.964223123658044      43.433438790755581
   165   1      21.294104318675494       32.59655127899871      43.374531587616246
   166   2       22.43850467055719      31.087108052420469      41.975262499717097
   167   2      19.653992134244643      34.025962738596512       42.47295524495194
   168   2      21.789816151224645       32.67658304597915      45.675377018179702
   169   1      37.300714012172321      40.828438171195522      5.2639039927062479
   170   2      37.449859457844227      38.551078358219954      5.8447765417901261
   171   2      36.195133003916858      41.469110340344635      3.2857091575439994
   172   2      38.257149574755879      42.465125815021977      6.6612262787846186
   173   1      41.233209522817063      15.516733696203723      7.1935966485571328
   174   2      42.396102728696427      17.336518917185753      8.1327910593236084
   175   2      39.869231556044838      14.162338090991136      8.5541853633202436
   176   2      41.434294283709924      15.051344080434276      4.8938135230275472
   177   1      7.6806697596029316      5.7745031832677487      1.0574008168220015
   178   2      6.4998318635845989      7.6335825790675678     0.22345197939876016
   179   2      9.2318966565037464      6.0531589866121793      2.8072782575571908
   180   2      7.3102807587204488      3.6367679841234999     0.14147221351005435
   181   1      29.557190805548561      34.035726339975319      19.681522841601414
   182   2      31.819656389486699      34.270854898864073      20.291431885877984
   183   2      28.179740571227825      32.511163494386516      20.832332983119084
   184   2      28.672175455931164       35.32516062667537      17.920803655807173
   185   1      42.556581341110302      2.1737531006395971      9.0749204798262042
   186   2      41.880330691431091       2.877400402170772      11.218186803421185
   187   2       41.57672610668741      3.1290105518230629      7.1583109939025533
   188   2      44.212687225212406      0.5148483479249566      8.8482636421548744
   189   1      20.813121285159614      2.4627059963796993       18.68070692297858
   190   2        20.1274401583957      3.4383529325488396      20.711465266145865
   191   2      22.951391245411454      2.9311244299932158      17.812138705660185
   192   2      19.360532451671688      1.0186406265970427      17.518516797129688
   193   1      2.5980933232552128      46.242093450903106      4.9556570789937746
   194   2      1.6735750658977582      48.397666304379989      4.7440048520594313
   195   2      4.6030055640067076      45.706251288547371      3.8424522083941373
   196   2      1.5176993398611738      44.622362759781957      6.2805141765277561
   197   1      40.101294013679677      38.973877038566442      32.124163799777385
   198   2      41.194758333490007       37.24161551280109      30.962427690475959
   199   2      41.354232348978705      40.526253299677499      33.375682266232019
   200   2      37.754891358570312      39.153762303220738      32.034381442624181
   201   1      25.711143509520724      42.878607206127874      23.139968279675792
   202   2      25.675711205790876      41.133247612636758      21.559307202385366
   203   2      23.713725620282251      43.563799562937746      24.182493200202615
   204   2       27.74399370248905       43.93877444280912      23.678104436439394
   205   1      6.9884205476978432      23.893863701187289       20.84446842974425
   206   2      6.7388076641495864      22.091065598603638      22.339004280665034
   207   2      7.6773537607411875      23.498704263493263      18.627433236796897
   208   2      6.5491002182027556       26.09182124146497       21.56696777177082
   209   1      16.374778220627274      18.973203986346448      34.287167272797269
   210   2      16.664549742948878      19.579036800674455      36.544383271751471
   211   2      17.627766830283786      17.200843661387829      33.373502442247457
   212   2      14.832018088649153       20.13973149697706      32.943616104392881
   213   1      24.045521415003929       16.41806025023444      26.771739491500156
   214   2      24.469202909678753      18.511077078320724      27.764613878528916
   215   2       21.87877899079075      15.891012396056968       26.01445960498414
   216   2      25.788582344542288      14.852091276325623      26.536144990987413
   217   1       26.63611380328701      31.645881463381038      14.407780709123086
   218   2      26.542850285856979       30.16185581892103      12.581583895276992
   219   2      27.579707752184252      30.944257381908891      16.448216718387499
   220   2      25.785783371819804      33.831531189313196      14.193541513704771
   221   1      43.035953416294703      6.6051418650771963      30.718987027095991
   222   2      44.424096995738651      6.3407214941030814      28.835064451653349
   223   2      41.759913358111078      4.7888386661552085      31.505618744926196
   224   2       42.92384989503438       8.685865434973298      31.816277884708438
   225   1      46.796991135031298      6.8703965018901076      47.944012295454016
   226   2       48.17317184019619       8.371916866589423      49.126208667096684
   227   2       44.73406925837326      6.1951250502546316      48.857460048427221
   228   2      47.483732306524445      6.0441475888262675      45.848368170838135
   229   1      39.755741949154292      47.301353140866517      12.669167691959359
   230   2      39.496290643031593      46.491418679443989      10.473099344218008
   231   2      40.397156737526892      45.835162332762195      14.396853017326025
   232   2       39.37377846690439      49.577478410393368      13.137550714334045
   233   1      8.5645652046394396      28.247530573622093      28.621525701692484
   234   2      10.727924902908189      28.810756314649261      27.880798639576522
   235   2      7.5975112157910463      26.197651430181274       27.98212983062454
   236   2      7.3682594952190845      29.734183976035748      30.001648634876393
   237   1      39.962235825603329      24.607660778771461      29.979672076130615
   238   2      39.783679173434422      26.902254856507813      30.478651575091735
   239   2      39.923850336202023      23.883399591785562      27.739137031274325
   240   2      40.179177967173551         23.037327888021       31.72122762202579
   241   1      4.3854505955384209      32.893164252026388      20.930415039518973
   242   2      5.4674350573065658      34.884485353367722      20.290122219127383
   243   2       5.422925292050131      31.426514000290318      22.453112742012955
   244   2      2.2659914372585654      32.368493402421123      20.048010157416581
   245   1      44.918327368076788      38.126607353532613      13.526747045508786
   246   2      45.428038975146734      38.836589226282769      11.339935481156624
   247   2      43.560299857716565      39.462016498157993      14.911835020171669
   248   2      45.766643271367059      36.081216336157077      14.328470635198068
   249   1      7.3891686271095827      46.806373168787204      21.895201859937664
   250   2      7.0906130347786629      45.150459071338517      23.542878424120886
   251   2      6.2795445363189444      46.622309738427326      19.826173094854589
   252   2      8.7973483102311398      48.646350696595768      22.316554060837518
   253   1       46.80699934192311      39.015074695469607      23.968478206227019
   254   2      48.697478225403721      38.902861825383518      25.368307789748158
   255   2      46.924067933044874      40.175216532250538      21.922411036380602
   256   2      44.799451867320734      37.967145728774767      24.614715792552296
   257   1      47.559733000192054      5.9239288608520679      42.526683959539127
   258   2      49.471560585732284      7.2457224418403809      42.905896317493735
   259   2      45.504894360464696      6.9483458587321802      42.003011371811141
   260   2      47.702744054379174      3.5777182819836417        42.6711441893125
   261   1      34.304818255272437       0.615134294430142      22.715898092087329
   262   2      36.320508350367767     0.27445913661010257      21.546727925952879
   263   2       32.51058544545473      49.116605966270328      22.431000788000052
   264   2      34.083360969994814      2.4543377804099964      24.169965562309059
   265   1      22.115706353394661       15.09636957212458      45.922094775777708
   266   2       20.85665837018982      14.544270395919726      44.010025301197423
   267   2      21.089637471515669      16.207755984122979      47.727095577125155
   268   2        24.4008232184785      14.537082336331036      46.029163449010547
   269   1      43.960001215387265      14.195421893201948      41.844828983046909
   270   2      44.453510814858561      15.985325369836273      40.396133425118322
   271   2      45.707309333938909      12.952946141123721      42.819094524026966
   272   2      41.719183497364327      13.647994168645846      42.319258999995441
   273   1      32.506250777939847      4.5220363492066369      44.851669944831265
   274   2      32.830019223976237      2.1910337589369391      44.938996444286715
   275   2      34.361745392325837      5.9713308587627933       44.90372914723563
   276   2      30.326987717517472      5.4037444299201773      44.712284242971442
   277   1      38.838397034610928      9.9102113606448938      45.531911356544263
   278   2      40.453612840031425      11.584705086711473      45.896841025499079
   279   2      38.614177569758404      8.1364180413685396      47.064689191741465
   280   2      37.447400694042955       10.00951095385467      43.634203852392247
   281   1      2.5828958507199458      30.296258882386383      40.074090542970765
   282   2      1.2135579473899627      32.067216189445972      39.342893631683452
   283   2      4.9266396339080618      30.518957362543031      40.016684396061414
   284   2      1.6084899708618143      28.302603095170149      40.862693601167422
   285   1      40.048192682083808      46.389771508614018      38.605419955219027
   286   2      39.628976692533399      47.985795405080452      40.285595742454809
   287   2      38.317654512203084      44.971791119501717      37.870168801749138
   288   2      42.197946841514934      46.211728001259885      37.660495321453133
   289   1      10.089105535952768      6.2461839652821549      25.226549509649328
   290   2       9.735275051889273       4.597620405377393      23.582448789650236
   291   2      12.247151126402095      7.1252442540920322      25.567309305076712
   292   2      8.2848904295669357      7.0156872363770368      26.529890434221038
   293   1      7.7606496220545438      36.731054596758078      9.6520745434452042
   294   2      7.2257864656215611       36.42507034347198      7.3791205094551868
   295   2      9.2251038375829353      35.233861417286136      10.729019961729634
   296   2      6.8310585629591358      38.534232029516119      10.848083159150793
   297   1      30.577180298853477        2.72501574956478      30.815448496376639
   298   2       30.39485825966586      3.7356947859847085      32.934719965388517
   299   2      28.647981290081947      2.3600411462672155      29.515060199173561
   300   2      32.688701346812628      2.0793113164424168      29.996565324567847
   301   1      8.6563923211251605      4.5860502912099035      9.1766614440159486
   302   2      8.5460413235411732      2.2672769610636641      9.5730676759734408
   303   2       10.30959873195027      5.8847096244586741      10.237989621052918
   304   2       7.113536907884038      5.6061642881073741       7.718927035021486
   305   1      31.820417105388842      28.620657497931866      7.2565127332524852
   306   2      32.340800299305428      26.342733174827103      6.9627660571914678
   307   2      31.450600710418129      29.474542517353054      9.4198761349071738
   308   2      31.669850306442971      30.044696801615441      5.3868960076588142
   309   1      34.988797229453304      32.461657762265446      47.029720484775922
   310   2      33.176010708478991      31.141456796950383       46.31076329512203
   311   2      34.936833931826882      33.476504284467822       49.15419956259089
   312   2       36.85354704805404      32.767012205378137      45.624198596614846
   313   1      23.708436474130906      5.9608763098872313      6.7047304936382668
   314   2        22.5350486104096      6.7303951398813817      8.5960334021000442
   315   2      25.632887494401395       4.630423075369964      6.9738168391528816
   316   2      22.957373317581723      6.5218107144103481      4.5443412396618736
   317   1      30.549377351831414      31.731455870913152      20.590544829278514
   318   2      31.317306082246244      32.364809058961534      22.724830237604312
   319   2      31.909556334754658      30.410326356301525      19.193922138629414
   320   2      28.421269638493342      32.419232197476397      19.852882111601819
   321   1      15.852045565861895       1.802991713868185      20.920002207843019
   322   2      17.153958460001313      3.4583914349306597      21.973899536608872
   323   2      16.650940818350662      0.7353561015576151      18.978882537426706
   324   2      13.751237419233709      1.2152276051162798       21.80722454949348
   325   1      28.288595021596048      35.100109055518573      32.397424110060498
   326   2      30.283890262100154      36.309796582832824      32.715980211056838
   327   2      28.073024741730467       33.64833052831893      30.555714696933467
   328   2      26.508870060957523      35.342200055403964      33.920577422191187
   329   1      27.457219179983973      21.570909758994507      31.300624047052857
   330   2       27.82998869686692      23.053542367558354       29.50929257708254
   331   2      28.078998456713482       19.30791331825089      31.105015662233974
   332   2      26.462670386371517      22.351273591174277      33.287563901842056
   333   1      44.320144336185386      46.052859864759583      25.181646259154959
   334   2      44.491926613638803      47.552370819718767      26.989402532857344
   335   2      44.331744475657146      46.866492590925944      22.971693267873171
   336   2      44.136761919260209      43.739716183634037      25.583842976734367
   337   1      41.869118117253429       24.70708232587117      5.7928362167634191
   338   2      42.954345828944795      22.630791038911756      5.5534196227822772
   339   2      42.339544768313303      26.461379154942815       4.293781047170997
   340   2       40.31346375450218      25.029076783758942      7.5313079803369831
   341   1      14.030571806682795      16.706502025077292      8.6497222595796899
   342   2       15.77946603792968      18.093083871765604      9.4012438829185019
   343   2      11.888646904233184      16.886748259699512      9.6118521921619422
   344   2      14.423602477885526      15.139673943766757      6.9360707036586255
   345   1      41.358671226034325      42.827401178727911      18.613078659577408
   346   2       40.34541855752272      43.790350934085282      20.508354839560496
   347   2      40.031579026245581      41.787797720555503      16.968671184826746
   348   2      43.699016094334667      42.904054881542947       18.36220995434498
   349   1      18.245968053912627      47.921459045048621      49.773223629181857
   350   2      18.958411760757656       49.12237415522663      1.6696022471595655
   351   2      16.505137337703577      46.346713930021181      49.962197807842067
   352   2      19.274355063276651      48.295289049898045      47.687870832543936
   353   1      35.270318274200633      19.392084758182488      32.044431729307973
   354   2      35.960887208723918      18.754135797878778      29.885228017121747
   355   2       34.05533858182455      17.884909876510896      33.385428829667234
   356   2      35.794729032053432       21.53720860015779      32.862638341134947
   357   1      8.1875652129147944      8.2953433938266823      41.815214527511898
   358   2      5.8525564377253971      8.0176409772050565       41.94421215381184
   359   2      9.3048561891018764      9.6251309813845882      43.405607826827463
   360   2      9.4052830119171098       7.243258222890403      40.095823601896392
   361   1      49.516083216313625      7.0797944284387349      22.412280662717553
   362   2     0.74815660473949464      5.0791625681021948      22.252617501847087
   363   2      49.166936586397959      8.0831080667041775      24.514061663223814
   364   2      48.633156457803416      8.0771126505098323      20.470162823081758
   365   1       21.68895136612965      23.466346709520064      7.5336486906620088
   366   2      20.392076389567016      25.262515250697405      8.3323469233197098
   367   2      23.631308440750054      23.886776351348168       6.270116771419616
   368   2      21.043469268071881      21.249748526514622      7.9984823772467006
   369   1      11.642614247185312      14.602966515726418       24.50987712007932
   370   2      12.112513193159494      16.548831541566912       25.75037269918597
   371   2      9.4362600006055253      13.788682166712269      24.387537684287167
   372   2      13.379069547790918       13.47138583890008      23.391720976764827
   373   1      12.183372702785677      42.179419238127061      31.879435023922952
   374   2      10.434134865407552      41.176918858333757       30.66239559284482
   375   2      13.956437699427857      43.232423446907717      30.742136622458982
   376   2      12.159545543521626      42.128915409139708      34.233772856465052
   377   1       2.905424086072367      18.330419246630619      26.976371763083932
   378   2      2.1485970282495206      19.667923103664698      25.191905109720476
   379   2      3.0072173655777563      15.990226913955297      26.733137361045138
   380   2      3.5604578643898233      19.333107722271865      29.004072818486183
   381   1      38.431379472968956      42.600775844058454      25.239574145174902
   382   2      39.515845991843285      41.094960102576728      26.689565980374823
   383   2      39.692302337244506      43.901272935087356      23.734646955383816
   384   2      36.085990089819077      42.806094494511278      25.294509499766072
   385   1      17.029539779576215      24.940847926574261      26.570552050228883
   386   2      18.020512521624443      23.206974765863755      25.322480783399477
   387   2      17.422778557510682      25.097346838208018      28.887208337679844
   388   2      15.645328259593519      26.518222175651012      25.501967029607336
   389   1      31.541612018237121      8.8753291218483739      16.942781780480249
   390   2      33.011858678830215      7.6974371248502651      18.355923740943762
   391   2       29.55918974163081      9.8007350733459173      17.814361233053557
   392   2      32.053787634250334      9.1278151673489401      14.658060367443429
   393   1      22.410366412843572      15.376753621039308       29.92385957788683
   394   2      22.249412705538855      13.129039175676702      30.607890773237699
   395   2      20.475388501394541      16.714217721942408      29.809512470359774
   396   2      24.506298031597321      16.287003965498812      29.354175490063021
   397   1       31.68848865346315      49.090297377126774      31.017885482902201
   398   2      30.958338760338073      46.853445228422459      31.114831851613502
   399   2      31.215425073661464     0.56142778608573607      32.794964875979908
   400   2      32.891702126389916      49.856019116872126      29.143859721113195
