400
Lattice="50.0 0.0 0.0 0.0 50.0 0.0 0.0 0.0 50.0" Properties=species:S:1:pos:R:3 pbc="T T T"
Cr      34.86840145       4.70886739      48.78111758
Cl      35.31199355       4.61428662      46.47020747
Cl      35.88917452       3.16763381       0.24010572
Cl      33.40403629       6.34468175      49.63303955
Cr      22.51929689      18.53990121      46.33824944
Cl      23.60226257      17.72699370      44.41149265
Cl      23.32918152      20.46939134      47.41861036
Cl      20.62644659      17.42331859      47.18464531
Cr      11.36193609      27.72923935       3.19086281
Cl      13.14327429      28.34201133       1.77757949
Cl       9.25239270      28.74408204       2.93406323
Cl      11.69014128      26.10162469       4.86094570
Cr      17.72629841      48.53490122      44.65605607
Cl      17.23524892      47.40480991      42.64912083
Cl      18.31470836      47.31341362      46.58161229
Cl      17.62893794       0.88648014      44.73743508
Cr       2.19018829       7.71447460      34.15244766
Cl       1.48770879       6.41658307      32.31722966
Cl       0.62386922       8.99620228      35.35654223
Cl       4.45898686       7.73063846      34.78357110
Cr      18.52298530      23.47779056       9.47356795
Cl      20.51422281      24.41821802       8.63894564
Cl      16.64831266      24.84774442       9.86708278
Cl      18.40642043      21.16740925       9.91467543
Cr      33.49069973      21.85759594      41.63390980
Cl      33.80639285      23.44155086      43.34780878
Cl      33.18517106      19.58538273      42.17217028
Cl      33.48053530      22.54585424      39.38175035
Cr      40.23821787      19.37391895      14.41640520
Cl      40.61155987      20.41890618      12.33923346
Cl      41.21510642      17.28047795      14.87380931
Cl      38.88798734      20.42237273      16.03617283
Cr       0.36811349      39.34621888      33.24254283
Cl      48.59763452      38.90336743      31.75415046
Cl       1.25373652      41.52231704      33.40469586
Cl       1.25296942      37.61297215      34.56878217
Cr      28.43705980       6.98984991       5.72650368
Cl      29.39428008       8.05075521       3.85454367
Cl      26.14552521       7.26730021       6.19331793
Cl      29.77137411       5.65149430       7.13164943
Cr      38.24994287      31.73591600      27.67897003
Cl      39.35671000      32.08745934      25.63018776
Cl      36.08955728      30.79884541      27.70461835
Cl      39.30356132      32.32144325      29.70210399
Cr      21.83586946      10.72923364      20.42643219
Cl      19.61836891      10.63643701      19.63896468
Cl      23.52874131      11.64934507      19.07232551
Cl      22.36049817       9.90191885      22.56800636
Cr      14.06919460      14.67968789      33.09582574
Cl      15.04190746      16.12161044      31.50815006
Cl      15.33421958      13.92745307      34.93427062
Cl      11.83145676      13.99000015      32.84505653
Cr      20.31934307      40.70101923       8.34864600
Cl      21.04753239      42.83491281       7.66874636
Cl      18.65743257      39.57601677       7.11639280
Cl      21.25306425      39.69212812      10.26079883
Cr      23.09386151       8.06358895      25.05223876
Cl      22.42057639       5.81504603      25.24398572
Cl      21.85033607       9.75956990      26.11210577
Cl      25.01067207       8.61615092      23.80062477
Cr      19.05106130      15.07560446      31.51412966
Cl      17.52066105      14.81274518      33.28466772
Cl      21.23590128      14.21860807      31.70921031
Cl      18.39662159      16.19546012      29.54851094
Cr      48.09488323      45.42903454      34.98535669
Cl      47.97371300      43.30818089      36.00188146
Cl      46.27354134      46.23974611      33.73176765
Cl       0.03739534      46.73917660      35.22242097
Cr      35.84450946      22.46807511      13.61207809
Cl      37.96545238      23.09375578      14.42210884
Cl      34.23201808      24.11734260      13.13687993
Cl      35.33605791      20.19312694      13.27724550
Cr      10.11816824      15.29783121      28.96097845
Cl       7.96018383      14.79080607      29.75599655
Cl      11.94334453      13.93452795      29.55777048
Cl      10.45097636      17.16815961      27.56916832
Cr      35.97314780      21.60465199      31.36544204
Cl      37.53192476      20.64096360      32.84447688
Cl      35.74096798      23.94583668      31.26069571
Cl      34.64655065      20.22715569      29.99115351
Cr      20.79037011       2.08070869      24.69954096
Cl      19.21623838       0.74463316      23.56682897
Cl      22.73140314       2.81377360      23.58552498
Cl      20.42346881       2.68371932      26.94626894
Cr      29.38222861       8.52964843      46.25600592
Cl      29.36827477       6.67557218      47.70798097
Cl      27.54351860       8.93032987      44.84015815
Cl      31.23489246       9.98304324      46.21987863
Cr       1.14019355      47.92796066      24.11517185
Cl       3.05998146      48.74380344      23.02208450
Cl      49.63860628      46.52362463      22.96665064
Cl       0.72199292      48.51645392      26.35678040
Cr      24.53534972      46.89132275      28.58640262
Cl      23.89497721      45.01443414      27.31626987
Cl      22.89515097      48.34332771      29.45095722
Cl      26.81592097      47.31620640      28.99198076
Cr      26.03362012      21.94557302       1.08060399
Cl      27.33104924      20.01079757       1.42606988
Cl      24.73381361      22.15861173      49.12838922
Cl      26.03599753      23.66730975       2.68735288
Cr      27.70180718       5.42878706      33.61200465
Cl      29.67015365       5.21342889      32.33714858
Cl      27.29395584       7.40676877      34.82331412
Cl      26.14131204       3.66616351      33.67555126
Cr      38.43237460       5.38704730      45.80059226
Cl      39.22730720       5.73537682      47.98983270
Cl      38.19756979       7.21062821      44.32904737
Cl      37.87224680       3.21513686      45.08289671
Cr      18.54611419      41.48948716      40.41257360
Cl      17.54081255      43.42565985      41.29949462
Cl      20.87445567      41.42536952      40.06509716
Cl      17.22307436      39.61743210      39.87312903
Cr      25.75285646      12.79825453      46.80217850
Cl      24.11584842      11.37085148      47.71253570
Cl      27.77601828      11.90474461      45.99317832
Cl      25.36670268      15.11916750      46.70082149
Cr      49.61877820      44.58386331      37.43040097
Cl      49.24433554      46.75247775      38.26880966
Cl       1.79147581      43.67543012      37.44301953
Cl      47.82052325      43.32368207      36.57937373
Cr      15.79645259      38.60062161      33.08306316
Cl      13.84842197      39.55111011      32.16231711
Cl      15.63412878      36.73968559      34.51714583
Cl      17.90680702      39.51106912      32.56972654
Cr      13.12302580      46.84065753      12.04852875
Cl      11.79464601      48.51892575      13.03079548
Cl      14.97607523      47.43208329      10.72095639
Cl      12.59835615      44.57096354      12.39383437
Cr       8.96341541      29.96913958      43.72810204
Cl       9.03501401      31.97608498      44.95817066
Cl       7.32087248      28.35141784      44.20878293
Cl      10.53435973      29.57991591      42.01735254
Cr      48.59132130      25.03705931       7.19487513
Cl      47.89379278      24.12635512       9.25159505
Cl      48.35851874      27.34523155       6.78969755
Cl      49.52165239      23.63959126       5.54333279
Cr      33.88293368       6.09162523      25.31649658
Cl      35.55122247       7.74475010      25.48974689
Cl      33.73752214       4.39089641      26.93896444
Cl      32.36005643       6.13922918      23.52077841
Cr      40.20622631      35.77035648      36.94920020
Cl      40.29660906      34.89088979      34.76645094
Cl      40.86349983      37.99595537      37.35010680
Cl      39.45857004      34.42422429      38.73104284
Cr      19.87890969      15.04743459      24.42920227
Cl      20.74522874      13.17627624      25.56686774
Cl      17.64352978      15.70369388      24.77333220
Cl      21.24797055      16.26233365      22.94740686
Cr      46.24042147       1.24297457      27.75990212
Cl      48.30318089       0.46503082      26.93174025
Cl      45.75591154       3.54747847      27.73673113
Cl      44.66217197      49.71641442      28.61123497
Cr      20.95571597      48.31159561      29.80212766
Cl      18.88973969      47.98093254      28.72118873
Cl      22.12926377       0.33184984      29.50652086
Cl      21.84814443      46.62200445      31.17867339
Cr      39.23817246       0.89183920       5.45719984
Cl      37.25281306       1.90266985       4.69392110
Cl      39.18450816      49.44653688       7.31576013
Cl      41.27719617       1.32631086       4.36191829
Cr      26.53847953      30.30079104      43.38694769
Cl      27.88137178      31.28758770      41.72294716
Cl      25.48595597      31.65056228      45.00445711
Cl      26.24811085      27.96422312      43.43343879
Cr      21.29410432      32.59655128      43.37453159
Cl      22.43850467      31.08710805      41.97526250
Cl      19.65399213      34.02596274      42.47295524
Cl      21.78981615      32.67658305      45.67537702
Cr      37.30071401      40.82843817       5.26390399
Cl      37.44985946      38.55107836       5.84477654
Cl      36.19513300      41.46911034       3.28570916
Cl      38.25714957      42.46512582       6.66122628
Cr      41.23320952      15.51673370       7.19359665
Cl      42.39610273      17.33651892       8.13279106
Cl      39.86923156      14.16233809       8.55418536
Cl      41.43429428      15.05134408       4.89381352
Cr       7.68066976       5.77450318       1.05740082
Cl       6.49983186       7.63358258       0.22345198
Cl       9.23189666       6.05315899       2.80727826
Cl       7.31028076       3.63676798       0.14147221
Cr      29.55719081      34.03572634      19.68152284
Cl      31.81965639      34.27085490      20.29143189
Cl      28.17974057      32.51116349      20.83233298
Cl      28.67217546      35.32516063      17.92080366
Cr      42.55658134       2.17375310       9.07492048
Cl      41.88033069       2.87740040      11.21818680
Cl      41.57672611       3.12901055       7.15831099
Cl      44.21268723       0.51484835       8.84826364
Cr      20.81312129       2.46270600      18.68070692
Cl      20.12744016       3.43835293      20.71146527
Cl      22.95139125       2.93112443      17.81213871
Cl      19.36053245       1.01864063      17.51851680
Cr       2.59809332      46.24209345       4.95565708
Cl       1.67357507      48.39766630       4.74400485
Cl       4.60300556      45.70625129       3.84245221
Cl       1.51769934      44.62236276       6.28051418
Cr      40.10129401      38.97387704      32.12416380
Cl      41.19475833      37.24161551      30.96242769
Cl      41.35423235      40.52625330      33.37568227
Cl      37.75489136      39.15376230      32.03438144
Cr      25.71114351      42.87860721      23.13996828
Cl      25.67571121      41.13324761      21.55930720
Cl      23.71372562      43.56379956      24.18249320
Cl      27.74399370      43.93877444      23.67810444
Cr       6.98842055      23.89386370      20.84446843
Cl       6.73880766      22.09106560      22.33900428
Cl       7.67735376      23.49870426      18.62743324
Cl       6.54910022      26.09182124      21.56696777
Cr      16.37477822      18.97320399      34.28716727
Cl      16.66454974      19.57903680      36.54438327
Cl      17.62776683      17.20084366      33.37350244
Cl      14.83201809      20.13973150      32.94361610
Cr      24.04552142      16.41806025      26.77173949
Cl      24.46920291      18.51107708      27.76461388
Cl      21.87877899      15.89101240      26.01445960
Cl      25.78858234      14.85209128      26.53614499
Cr      26.63611380      31.64588146      14.40778071
Cl      26.54285029      30.16185582      12.58158390
Cl      27.57970775      30.94425738      16.44821672
Cl      25.78578337      33.83153119      14.19354151
Cr      43.03595342       6.60514187      30.71898703
Cl      44.42409700       6.34072149      28.83506445
Cl      41.75991336       4.78883867      31.50561874
Cl      42.92384990       8.68586543      31.81627788
Cr      46.79699114       6.87039650      47.94401230
Cl      48.17317184       8.37191687      49.12620867
Cl      44.73406926       6.19512505      48.85746005
Cl      47.48373231       6.04414759      45.84836817
Cr      39.75574195      47.30135314      12.66916769
Cl      39.49629064      46.49141868      10.47309934
Cl      40.39715674      45.83516233      14.39685302
Cl      39.37377847      49.57747841      13.13755071
Cr       8.56456520      28.24753057      28.62152570
Cl      10.72792490      28.81075631      27.88079864
Cl       7.59751122      26.19765143      27.98212983
Cl       7.36825950      29.73418398      30.00164863
Cr      39.96223583      24.60766078      29.97967208
Cl      39.78367917      26.90225486      30.47865158
Cl      39.92385034      23.88339959      27.73913703
Cl      40.17917797      23.03732789      31.72122762
Cr       4.38545060      32.89316425      20.93041504
Cl       5.46743506      34.88448535      20.29012222
Cl       5.42292529      31.42651400      22.45311274
Cl       2.26599144      32.36849340      20.04801016
Cr      44.91832737      38.12660735      13.52674705
Cl      45.42803898      38.83658923      11.33993548
Cl      43.56029986      39.46201650      14.91183502
Cl      45.76664327      36.08121634      14.32847064
Cr       7.38916863      46.80637317      21.89520186
Cl       7.09061303      45.15045907      23.54287842
Cl       6.27954454      46.62230974      19.82617309
Cl       8.79734831      48.64635070      22.31655406
Cr      46.80699934      39.01507470      23.96847821
Cl      48.69747823      38.90286183      25.36830779
Cl      46.92406793      40.17521653      21.92241104
Cl      44.79945187      37.96714573      24.61471579
Cr      47.55973300       5.92392886      42.52668396
Cl      49.47156059       7.24572244      42.90589632
Cl      45.50489436       6.94834586      42.00301137
Cl      47.70274405       3.57771828      42.67114419
Cr      34.30481826       0.61513429      22.71589809
Cl      36.32050835       0.27445914      21.54672793
Cl      32.51058545      49.11660597      22.43100079
Cl      34.08336097       2.45433778      24.16996556
Cr      22.11570635      15.09636957      45.92209478
Cl      20.85665837      14.54427040      44.01002530
Cl      21.08963747      16.20775598      47.72709558
Cl      24.40082322      14.53708234      46.02916345
Cr      43.96000122      14.19542189      41.84482898
Cl      44.45351081      15.98532537      40.39613343
Cl      45.70730933      12.95294614      42.81909452
Cl      41.71918350      13.64799417      42.31925900
Cr      32.50625078       4.52203635      44.85166994
Cl      32.83001922       2.19103376      44.93899644
Cl      34.36174539       5.97133086      44.90372915
Cl      30.32698772       5.40374443      44.71228424
Cr      38.83839703       9.91021136      45.53191136
Cl      40.45361284      11.58470509      45.89684103
Cl      38.61417757       8.13641804      47.06468919
Cl      37.44740069      10.00951095      43.63420385
Cr       2.58289585      30.29625888      40.07409054
Cl       1.21355795      32.06721619      39.34289363
Cl       4.92663963      30.51895736      40.01668440
Cl       1.60848997      28.30260310      40.86269360
Cr      40.04819268      46.38977151      38.60541996
Cl      39.62897669      47.98579541      40.28559574
Cl      38.31765451      44.97179112      37.87016880
Cl      42.19794684      46.21172800      37.66049532
Cr      10.08910554       6.24618397      25.22654951
Cl       9.73527505       4.59762041      23.58244879
Cl      12.24715113       7.12524425      25.56730931
Cl       8.28489043       7.01568724      26.52989043
Cr       7.76064962      36.73105460       9.65207454
Cl       7.22578647      36.42507034       7.37912051
Cl       9.22510384      35.23386142      10.72901996
Cl       6.83105856      38.53423203      10.84808316
Cr      30.57718030       2.72501575      30.81544850
Cl      30.39485826       3.73569479      32.93471997
Cl      28.64798129       2.36004115      29.51506020
Cl      32.68870135       2.07931132      29.99656532
Cr       8.65639232       4.58605029       9.17666144
Cl       8.54604132       2.26727696       9.57306768
Cl      10.30959873       5.88470962      10.23798962
Cl       7.11353691       5.60616429       7.71892704
Cr      31.82041711      28.62065750       7.25651273
Cl      32.34080030      26.34273317       6.96276606
Cl      31.45060071      29.47454252       9.41987613
Cl      31.66985031      30.04469680       5.38689601
Cr      34.98879723      32.46165776      47.02972048
Cl      33.17601071      31.14145680      46.31076330
Cl      34.93683393      33.47650428      49.15419956
Cl      36.85354705      32.76701221      45.62419860
Cr      23.70843647       5.96087631       6.70473049
Cl      22.53504861       6.73039514       8.59603340
Cl      25.63288749       4.63042308       6.97381684
Cl      22.95737332       6.52181071       4.54434124
Cr      30.54937735      31.73145587      20.59054483
Cl      31.31730608      32.36480906      22.72483024
Cl      31.90955633      30.41032636      19.19392214
Cl      28.42126964      32.41923220      19.85288211
Cr      15.85204557       1.80299171      20.92000221
Cl      17.15395846       3.45839143      21.97389954
Cl      16.65094082       0.73535610      18.97888254
Cl      13.75123742       1.21522761      21.80722455
Cr      28.28859502      35.10010906      32.39742411
Cl      30.28389026      36.30979658      32.71598021
Cl      28.07302474      33.64833053      30.55571470
Cl      26.50887006      35.34220006      33.92057742
Cr      27.45721918      21.57090976      31.30062405
Cl      27.82998870      23.05354237      29.50929258
Cl      28.07899846      19.30791332      31.10501566
Cl      26.46267039      22.35127359      33.28756390
Cr      44.32014434      46.05285986      25.18164626
Cl      44.49192661      47.55237082      26.98940253
Cl      44.33174448      46.86649259      22.97169327
Cl      44.13676192      43.73971618      25.58384298
Cr      41.86911812      24.70708233       5.79283622
Cl      42.95434583      22.63079104       5.55341962
Cl      42.33954477      26.46137915       4.29378105
Cl      40.31346375      25.02907678       7.53130798
Cr      14.03057181      16.70650203       8.64972226
Cl      15.77946604      18.09308387       9.40124388
Cl      11.88864690      16.88674826       9.61185219
Cl      14.42360248      15.13967394       6.93607070
Cr      41.35867123      42.82740118      18.61307866
Cl      40.34541856      43.79035093      20.50835484
Cl      40.03157903      41.78779772      16.96867118
Cl      43.69901609      42.90405488      18.36220995
Cr      18.24596805      47.92145905      49.77322363
Cl      18.95841176      49.12237416       1.66960225
Cl      16.50513734      46.34671393      49.96219781
Cl      19.27435506      48.29528905      47.68787083
Cr      35.27031827      19.39208476      32.04443173
Cl      35.96088721      18.75413580      29.88522802
Cl      34.05533858      17.88490988      33.38542883
Cl      35.79472903      21.53720860      32.86263834
Cr       8.18756521       8.29534339      41.81521453
Cl       5.85255644       8.01764098      41.94421215
Cl       9.30485619       9.62513098      43.40560783
Cl       9.40528301       7.24325822      40.09582360
Cr      49.51608322       7.07979443      22.41228066
Cl       0.74815660       5.07916257      22.25261750
Cl      49.16693659       8.08310807      24.51406166
Cl      48.63315646       8.07711265      20.47016282
Cr      21.68895137      23.46634671       7.53364869
Cl      20.39207639      25.26251525       8.33234692
Cl      23.63130844      23.88677635       6.27011677
Cl      21.04346927      21.24974853       7.99848238
Cr      11.64261425      14.60296652      24.50987712
Cl      12.11251319      16.54883154      25.75037270
Cl       9.43626000      13.78868217      24.38753768
Cl      13.37906955      13.47138584      23.39172098
Cr      12.18337270      42.17941924      31.87943502
Cl      10.43413487      41.17691886      30.66239559
Cl      13.95643770      43.23242345      30.74213662
Cl      12.15954554      42.12891541      34.23377286
Cr       2.90542409      18.33041925      26.97637176
Cl       2.14859703      19.66792310      25.19190511
Cl       3.00721737      15.99022691      26.73313736
Cl       3.56045786      19.33310772      29.00407282
Cr      38.43137947      42.60077584      25.23957415
Cl      39.51584599      41.09496010      26.68956598
Cl      39.69230234      43.90127294      23.73464696
Cl      36.08599009      42.80609449      25.29450950
Cr      17.02953978      24.94084793      26.57055205
Cl      18.02051252      23.20697477      25.32248078
Cl      17.42277856      25.09734684      28.88720834
Cl      15.64532826      26.51822218      25.50196703
Cr      31.54161202       8.87532912      16.94278178
Cl      33.01185868       7.69743712      18.35592374
Cl      29.55918974       9.80073507      17.81436123
Cl      32.05378763       9.12781517      14.65806037
Cr      22.41036641      15.37675362      29.92385958
Cl      22.24941271      13.12903918      30.60789077
Cl      20.47538850      16.71421772      29.80951247
Cl      24.50629803      16.28700397      29.35417549
Cr      31.68848865      49.09029738      31.01788548
Cl      30.95833876      46.85344523      31.11483185
Cl      31.21542507       0.56142779      32.79496488
Cl      32.89170213      49.85601912      29.14385972
